certificates/rado_a6_c188_N31.cnf
c Rad2 upper bound instance: x1 + 6*x2 - x3 = 188, interval [1,31]
p cnf 31 170
1 3 31 0
-1 -3 -31 0
2 4 31 0
-2 -4 -31 0
3 5 31 0
-3 -5 -31 0
4 6 31 0
-4 -6 -31 0
5 7 31 0
-5 -7 -31 0
6 8 31 0
-6 -8 -31 0
1 9 30 0
-1 -9 -30 0
7 9 31 0
-7 -9 -31 0
2 10 30 0
-2 -10 -30 0
8 10 31 0
-8 -10 -31 0
3 11 30 0
-3 -11 -30 0
9 11 31 0
-9 -11 -31 0
4 12 30 0
-4 -12 -30 0
10 12 31 0
-10 -12 -31 0
5 13 30 0
-5 -13 -30 0
11 13 31 0
-11 -13 -31 0
6 14 30 0
-6 -14 -30 0
12 14 31 0
-12 -14 -31 0
1 15 29 0
-1 -15 -29 0
7 15 30 0
-7 -15 -30 0
13 15 31 0
-13 -15 -31 0
2 16 29 0
-2 -16 -29 0
8 16 30 0
-8 -16 -30 0
14 16 31 0
-14 -16 -31 0
3 17 29 0
-3 -17 -29 0
9 17 30 0
-9 -17 -30 0
15 17 31 0
-15 -17 -31 0
4 18 29 0
-4 -18 -29 0
10 18 30 0
-10 -18 -30 0
16 18 31 0
-16 -18 -31 0
5 19 29 0
-5 -19 -29 0
11 19 30 0
-11 -19 -30 0
17 19 31 0
-17 -19 -31 0
6 20 29 0
-6 -20 -29 0
12 20 30 0
-12 -20 -30 0
18 20 31 0
-18 -20 -31 0
1 21 28 0
-1 -21 -28 0
7 21 29 0
-7 -21 -29 0
13 21 30 0
-13 -21 -30 0
19 21 31 0
-19 -21 -31 0
2 22 28 0
-2 -22 -28 0
8 22 29 0
-8 -22 -29 0
14 22 30 0
-14 -22 -30 0
20 22 31 0
-20 -22 -31 0
3 23 28 0
-3 -23 -28 0
9 23 29 0
-9 -23 -29 0
15 23 30 0
-15 -23 -30 0
21 23 31 0
-21 -23 -31 0
4 24 28 0
-4 -24 -28 0
10 24 29 0
-10 -24 -29 0
16 24 30 0
-16 -24 -30 0
22 24 31 0
-22 -24 -31 0
5 25 28 0
-5 -25 -28 0
11 25 29 0
-11 -25 -29 0
17 25 30 0
-17 -25 -30 0
23 25 31 0
-23 -25 -31 0
6 26 28 0
-6 -26 -28 0
12 26 29 0
-12 -26 -29 0
18 26 30 0
-18 -26 -30 0
24 26 31 0
-24 -26 -31 0
1 27 0
-1 -27 0
7 27 28 0
-7 -27 -28 0
13 27 29 0
-13 -27 -29 0
19 27 30 0
-19 -27 -30 0
25 27 31 0
-25 -27 -31 0
2 27 28 0
-2 -27 -28 0
8 28 0
-8 -28 0
14 28 29 0
-14 -28 -29 0
20 28 30 0
-20 -28 -30 0
26 28 31 0
-26 -28 -31 0
3 27 29 0
-3 -27 -29 0
9 28 29 0
-9 -28 -29 0
15 29 0
-15 -29 0
21 29 30 0
-21 -29 -30 0
27 29 31 0
-27 -29 -31 0
4 27 30 0
-4 -27 -30 0
10 28 30 0
-10 -28 -30 0
16 29 30 0
-16 -29 -30 0
22 30 0
-22 -30 0
28 30 31 0
-28 -30 -31 0
5 27 31 0
-5 -27 -31 0
11 28 31 0
-11 -28 -31 0
17 29 31 0
-17 -29 -31 0
23 30 31 0
-23 -30 -31 0
29 31 0
-29 -31 0
