certificates/rado_a6_c188_N31.drat
-31 0
29 0
-15 0
13 0
17 0
-27 0
-3 0
1 0
25 0
5 0
-11 0
-30 0
-19 0
-28 0
0
